(set-info :smt-lib-version 2.6)
(set-logic LRA)
(set-info :source |
   Monniaux, David; Quantifier Elimination by Lazy Model Enumeration, CAV 2010
|)
(set-info :category "random")
; ./Mjollnir_examples/B4/formula_006.m
(set-info :status unsat)
(assert
 (exists ((|v11:0| Real) )(exists ((|v10:1| Real) )(exists ((|v9:2| Real) )(exists ((|v8:3| Real) )(forall ((|v7:4| Real) )(forall ((|v6:5| Real) )(forall ((|v5:6| Real) )(forall ((|v4:7| Real) )(exists ((|v3:8| Real) )(exists ((|v2:9| Real) )(exists ((|v1:10| Real) )(exists ((|v0:11| Real) )(let ((?x93 11))
(let ((?x604 (+ (+ (+ (* (- 16) |v3:8|) (* (- 11) |v2:9|)) |v4:7|) |v0:11|)))
(let ((?x140 0))
(let ((?x66 (- 20)))
(let ((?x346 (* ?x66 |v3:8|)))
(let ((?x599 (+ (+ (+ (* 2 |v1:10|) |v0:11|) (* (- 11) |v3:8|)) ?x346)))
(let ((?x23 12))
(let ((?x571 (* ?x23 |v10:1|)))
(let ((?x593 (+ (+ (+ (* 2 |v1:10|) (* ?x93 |v10:1|)) ?x571) (* 4 |v2:9|))))
(let ((?x229 7))
(let ((?x33 (- 15)))
(let ((?x149 (* ?x33 |v7:4|)))
(let ((?x586 (+ (+ (+ (* (- 3) |v0:11|) (* 18 |v0:11|)) ?x149) (* ?x33 |v2:9|))))
(let (($x607 (and (and (<= ?x586 ?x229) (<= ?x593 ?x93)) (and (<= ?x599 ?x140) (<= ?x604 ?x93)))))
(let ((?x221 4))
(let ((?x579 (+ (+ (+ (* ?x229 |v8:3|) (* 13 |v1:10|)) (* ?x140 |v0:11|)) (* (- 17) |v2:9|))))
(let ((?x155 6))
(let ((?x257 (- 18)))
(let ((?x453 (* ?x257 |v9:2|)))
(let (($x573 (<= (+ (+ (+ (* ?x229 |v4:7|) (* (- 10) |v5:6|)) ?x453) ?x571) ?x155)))
(let ((?x172 15))
(let ((?x73 (* ?x66 |v8:3|)))
(let ((?x565 (+ (+ (+ (* (- 4) |v0:11|) (* 16 |v10:1|)) ?x73) (* 5 |v8:3|))))
(let ((?x527 (* ?x140 |v11:0|)))
(let ((?x559 (+ (+ (* (- 19) |v6:5|) (* 19 |v3:8|)) (* (- 16) |v4:7|))))
(let (($x582 (and (and (<= (+ ?x559 ?x527) ?x155) (<= ?x565 ?x172)) (and $x573 (<= ?x579 ?x221)))))
(let ((?x98 (- 8)))
(let ((?x358 (* ?x98 |v11:0|)))
(let ((?x551 (+ (+ (+ (* (- 14) |v1:10|) (* (- 9) |v9:2|)) ?x358) (* (- 6) |v2:9|))))
(let ((?x545 (+ (+ (+ (* ?x93 |v4:7|) (* ?x257 |v1:10|)) (* (- 12) |v7:4|)) (* ?x257 |v0:11|))))
(let ((?x536 (+ (+ (* 13 |v11:0|) (* 20 |v3:8|)) (* (- 6) |v5:6|))))
(let ((?x168 (- 1)))
(let ((?x530 (+ (+ (+ (* (- 11) |v11:0|) (* ?x33 |v0:11|)) ?x527) (* 16 |v7:4|))))
(let (($x554 (and (and (<= ?x530 ?x168) (<= (+ ?x536 (* 13 |v7:4|)) ?x140)) (and (<= ?x545 ?x140) (<= ?x551 ?x221)))))
(let ((?x42 (- 13)))
(let ((?x518 (+ (+ (* ?x155 |v5:6|) (* 9 |v4:7|)) (* 14 |v0:11|))))
(let ((?x180 20))
(let ((?x510 (* ?x155 |v5:6|)))
(let ((?x513 (+ (+ (+ (* (- 9) |v11:0|) (* 8 |v2:9|)) ?x510) (* (- 10) |v11:0|))))
(let ((?x37 (- 9)))
(let ((?x239 (- 6)))
(let ((?x240 (* ?x239 |v4:7|)))
(let ((?x505 (+ (+ (+ ?x149 (* (- 10) |v3:8|)) (* (- 17) |v1:10|)) ?x240)))
(let ((?x29 16))
(let ((?x500 (+ (+ (+ (* ?x98 |v6:5|) (* ?x140 |v0:11|)) (* ?x229 |v3:8|)) (* ?x172 |v7:4|))))
(let (($x523 (and (and (<= ?x500 ?x29) (<= ?x505 ?x37)) (and (<= ?x513 ?x180) (<= (+ ?x518 (* ?x257 |v4:7|)) ?x42)))))
(let ((?x70 (- 16)))
(let ((?x488 (+ (+ (* 5 |v3:8|) (* ?x221 |v1:10|)) (* (- 12) |v2:9|))))
(let ((?x483 (+ (+ (+ |v9:2| (* ?x168 |v1:10|)) (* ?x42 |v7:4|)) (* (- 12) |v9:2|))))
(let ((?x473 (+ (+ (* 19 |v3:8|) (* ?x29 |v10:1|)) (* (- 10) |v8:3|))))
(let ((?x60 (- 11)))
(let ((?x354 (* ?x140 |v1:10|)))
(let ((?x467 (+ (+ (+ (* 3 |v7:4|) (* 9 |v0:11|)) ?x354) (* ?x140 |v6:5|))))
(let (($x493 (and (and (<= ?x467 ?x60) (<= (+ ?x473 (* ?x229 |v10:1|)) ?x23)) (and (<= ?x483 ?x140) (<= (+ ?x488 (* (- 7) |v4:7|)) ?x70)))))
(let ((?x459 (+ (+ (+ ?x453 (* ?x37 |v4:7|)) (* 8 |v1:10|)) (* (- 19) |v11:0|))))
(let ((?x19 3))
(let ((?x52 (* ?x19 |v8:3|)))
(let ((?x451 (+ (+ (+ (* (- 17) |v3:8|) (* ?x66 |v9:2|)) (* ?x221 |v0:11|)) ?x52)))
(let ((?x81 (- 10)))
(let ((?x441 (* ?x81 |v3:8|)))
(let ((?x444 (+ (+ (+ (* ?x140 |v2:9|) (* (- 14) |v1:10|)) ?x441) (* ?x180 |v7:4|))))
(let ((?x438 (+ (+ (+ (* 9 |v6:5|) |v2:9|) (* ?x37 |v5:6|)) (* (- 14) |v2:9|))))
(let (($x462 (and (and (<= ?x438 ?x180) (<= ?x444 ?x239)) (and (<= ?x451 ?x221) (<= ?x459 ?x66)))))
(let ((?x317 (* (- 5) |v10:1|)))
(let ((?x429 (+ (+ (+ (* ?x172 |v5:6|) (* 9 |v10:1|)) (* ?x19 |v0:11|)) ?x317)))
(let (($x423 (<= (+ (+ (+ (* ?x180 |v9:2|) (* ?x70 |v2:9|)) (* ?x37 |v11:0|)) |v7:4|) ?x155)))
(let ((?x416 (- 17)))
(let ((?x415 (+ (+ (+ (* 9 |v6:5|) (* ?x70 |v2:9|)) (* ?x66 |v4:7|)) (* ?x81 |v10:1|))))
(let ((?x118 (- 7)))
(let ((?x88 17))
(let ((?x201 (* ?x88 |v10:1|)))
(let ((?x406 (+ (+ (* 8 |v11:0|) (* (- 4) |v11:0|)) (* ?x29 |v5:6|))))
(let (($x432 (and (and (<= (+ ?x406 ?x201) ?x118) (<= ?x415 ?x416)) (or $x423 (<= ?x429 ?x60)))))
(let ((?x283 19))
(let ((?x284 (* ?x283 |v8:3|)))
(let ((?x398 (+ (+ (* 14 |v3:8|) (* ?x168 |v6:5|)) (* (- 12) |v5:6|))))
(let ((?x63 5))
(let ((?x192 (* ?x63 |v0:11|)))
(let (($x394 (<= (+ (+ (+ (* ?x63 |v6:5|) (* ?x66 |v2:9|)) (* ?x168 |v2:9|)) ?x192) ?x19)))
(let ((?x377 (+ (+ (* ?x283 |v2:9|) (* (- 5) |v4:7|)) (* (- 14) |v11:0|))))
(let (($x387 (and (<= (+ ?x377 (* ?x37 |v2:9|)) ?x229) (<= (+ (+ (+ ?x354 (* ?x42 |v4:7|)) (* ?x155 |v2:9|)) ?x149) ?x19))))
(let (($x495 (and (or (and $x387 (and $x394 (<= (+ ?x398 ?x284) ?x19))) $x432) (and $x462 $x493))))
(let ((?x293 (* ?x172 |v9:2|)))
(let ((?x366 (+ (+ (+ (* (- 3) |v9:2|) (* ?x168 |v11:0|)) (* ?x229 |v2:9|)) ?x293)))
(let (($x368 (or (<= (+ (+ (+ ?x354 (* (- 12) |v3:8|)) |v8:3|) ?x358) ?x221) (<= ?x366 ?x19))))
(let ((?x10 18))
(let ((?x84 (* ?x10 |v9:2|)))
(let ((?x250 14))
(let ((?x341 (* ?x250 |v3:8|)))
(let ((?x344 (+ (+ (+ (* (- 4) |v10:1|) (* (- 14) |v7:4|)) ?x341) (* ?x118 |v7:4|))))
(let (($x353 (and (<= ?x344 ?x118) (<= (+ (+ (+ ?x346 (* ?x118 |v3:8|)) (* ?x172 |v10:1|)) ?x84) ?x29))))
(let ((?x336 (+ (+ (+ (* ?x118 |v5:6|) (* ?x93 |v0:11|)) (* (- 4) |v10:1|)) (* (- 12) |v8:3|))))
(let ((?x121 (- 2)))
(let ((?x328 (+ (+ (+ (* ?x121 |v6:5|) (* ?x42 |v8:3|)) (* ?x23 |v4:7|)) (* (- 14) |v5:6|))))
(let (($x321 (<= (+ (+ (+ (* ?x63 |v3:8|) (* ?x283 |v0:11|)) ?x317) (* ?x81 |v0:11|)) ?x37)))
(let ((?x108 (- 12)))
(let ((?x310 (+ (+ (+ (* ?x221 |v11:0|) (* ?x229 |v4:7|)) (* ?x33 |v6:5|)) (* 9 |v8:3|))))
(let (($x370 (and (and (and (<= ?x310 ?x108) $x321) (or (<= ?x328 ?x121) (<= ?x336 ?x93))) (and $x353 $x368))))
(let (($x300 (<= (+ (+ (+ (* ?x88 |v6:5|) ?x293) (* ?x155 |v3:8|)) (* ?x29 |v11:0|)) 1)))
(let ((?x290 (- 19)))
(let (($x291 (<= (+ (+ (+ (* ?x42 |v5:6|) ?x284) (* ?x121 |v6:5|)) (* ?x180 |v5:6|)) ?x290)))
(let ((?x277 (+ (+ (+ (* ?x250 |v10:1|) (* ?x140 |v0:11|)) (* ?x229 |v3:8|)) (* (- 14) |v8:3|))))
(let ((?x124 2))
(let ((?x267 (+ (+ (* (- 4) |v11:0|) (* ?x93 |v6:5|)) (* (- 3) |v8:3|))))
(let (($x302 (and (and (<= (+ ?x267 (* ?x81 |v2:9|)) ?x124) (<= ?x277 ?x93)) (or $x291 $x300))))
(let ((?x258 (* ?x257 |v1:10|)))
(let ((?x259 (+ (+ (+ (* ?x250 |v2:9|) (* ?x10 |v0:11|)) (* (- 4) |v8:3|)) ?x258)))
(let ((?x247 (+ (+ (+ (* ?x33 |v9:2|) ?x240) (* 8 |v4:7|)) (* ?x168 |v0:11|))))
(let ((?x235 (+ (+ (+ (* ?x155 |v7:4|) (* ?x229 |v9:2|)) (* ?x172 |v4:7|)) (* ?x29 |v2:9|))))
(let ((?x225 (+ (+ (+ (* (- 14) |v1:10|) (* ?x70 |v7:4|)) (* ?x221 |v3:8|)) (* ?x66 |v0:11|))))
(let (($x262 (and (and (<= ?x225 ?x88) (<= ?x235 ?x23)) (and (<= ?x247 ?x93) (<= ?x259 ?x19)))))
(let ((?x211 (+ (+ (+ (* ?x37 |v11:0|) (* ?x37 |v10:1|)) (* ?x168 |v7:4|)) (* ?x98 |v7:4|))))
(let ((?x203 (* ?x93 |v4:7|)))
(let (($x205 (<= (+ (+ (+ (* 10 |v5:6|) (* ?x19 |v5:6|)) ?x201) ?x203) ?x168)))
(let (($x196 (<= (+ (+ (+ (* ?x180 |v4:7|) (* ?x98 |v4:7|)) ?x192) (* ?x60 |v0:11|)) ?x37)))
(let ((?x82 (* ?x81 |v4:7|)))
(let ((?x188 (+ (+ (+ (* ?x180 |v2:9|) (* ?x10 |v10:1|)) (* (- 3) |v0:11|)) ?x82)))
(let ((?x55 9))
(let ((?x122 (* ?x121 |v2:9|)))
(let (($x176 (<= (+ (+ (+ (* ?x23 |v6:5|) (* ?x168 |v9:2|)) (* ?x172 |v8:3|)) ?x122) ?x55)))
(let ((?x50 (- 4)))
(let ((?x163 (* ?x50 |v0:11|)))
(let ((?x164 (+ (+ (+ (* ?x63 |v11:0|) (* (- 14) |v0:11|)) (* ?x10 |v4:7|)) ?x163)))
(let (($x156 (<= (+ (+ (+ ?x149 (* ?x23 |v2:9|)) (* ?x70 |v3:8|)) (* ?x50 |v4:7|)) ?x155)))
(let ((?x144 (- 14)))
(let ((?x145 (* ?x144 |v7:4|)))
(let ((?x146 (+ (+ (+ (* ?x124 |v0:11|) (* 10 |v0:11|)) (* ?x140 |v2:9|)) ?x145)))
(let (($x215 (and (and (and (<= ?x146 ?x121) $x156) (and (<= ?x164 ?x81) $x176)) (and (and (<= ?x188 ?x140) $x196) (and $x205 (<= ?x211 ?x140))))))
(let (($x131 (<= (+ (+ (+ ?x122 (* ?x124 |v7:4|)) (* ?x55 |v1:10|)) (* ?x63 |v7:4|)) ?x29)))
(let ((?x117 (+ (+ (+ (* ?x108 |v6:5|) (* ?x60 |v8:3|)) (* ?x33 |v9:2|)) (* 10 |v8:3|))))
(let ((?x103 (+ (+ (+ (* ?x93 |v1:10|) (* ?x70 |v2:9|)) (* ?x98 |v4:7|)) (* ?x50 |v5:6|))))
(let (($x105 (and (<= (+ (+ (+ (* ?x37 |v3:8|) ?x82) ?x84) (* ?x88 |v6:5|)) ?x63) (<= ?x103 ?x93))))
(let (($x75 (<= (+ (+ (+ (* ?x63 |v2:9|) (* ?x66 |v9:2|)) (* ?x70 |v1:10|)) ?x73) ?x55)))
(let (($x61 (<= (+ (+ (+ (* ?x50 |v1:10|) ?x52) (* ?x55 |v9:2|)) (* ?x19 |v9:2|)) ?x60)))
(let ((?x14 13))
(let ((?x44 (+ (+ (+ (* ?x29 |v4:7|) (* ?x33 |v11:0|)) (* ?x37 |v10:1|)) (* ?x42 |v9:2|))))
(let ((?x24 (* ?x23 |v2:9|)))
(let (($x26 (<= (+ (+ (+ (* ?x10 |v8:3|) (* ?x14 |v10:1|)) (* ?x19 |v7:4|)) ?x24) ?x23)))
(let (($x134 (and (and (and $x26 (<= ?x44 ?x14)) (or $x61 $x75)) (and $x105 (and (<= ?x117 ?x118) $x131)))))
(and (and (and $x134 $x215) (and (and $x262 $x302) $x370)) (and $x495 (and (and $x523 $x554) (and $x582 $x607))))))))))))))))))))))))))))))))))))))))))))))))))))))))))))))))))))))))))))))))))))))))))))))))))))))))))))))))))))))))))))))))))))))))))))))))
)
)
)
)
)
)
)
)
)
)
)
)
(check-sat)
(exit)

